NAME : 10_3_3_1_(07).dat
COMMENT : Henke, Speranza, Wäscher, 2015
TYPE : MCVRP
DIMENSION : 11
EDGE_WEIGHT_TYPE : DISTANCE_MATRIX
CAPACITY : 1000
VEHICLES : 3
PRODUCT TYPES : 3
COMPARTMENTS : 3
NODE_COORD_SECTION
1 50 50
2 68.29 78.22
3 32.94 33.84
4 18.18 82.7
5 90.16 16.88
6 15.49 64.49
7 41.87 11.31
8 27.17 62.58
9 47.57 6.97
10 98 93.19
11 38.6 65.78
DEMAND_SECTION
1 0 0 0
2 114 0 0
3 105 0 0
4 0 0 320
5 124 0 0
6 0 195 0
7 99 0 0
8 248 0 0
9 25 0 0
10 0 285 0
11 86 0 0
DEPOT_SECTION
1
EOF